c [ -1 -2 3 -4 -5 -6 -7 -8 -9 -10 ]
c r=8.000 p0=0.080
p cnf 10 80
-8 -7 -6 0
8 -10 9 0
3 -5 6 0
-4 8 7 0
1 -9 3 0
-9 -2 5 0
-10 7 5 0
7 -5 10 0
-3 -7 -10 0
10 7 -1 0
10 5 -7 0
-9 -5 -4 0
-4 -9 6 0
10 8 -2 0
1 10 -5 0
-2 10 9 0
6 2 -7 0
1 -2 -3 0
-9 -6 4 0
-4 -9 -10 0
8 3 10 0
-7 -1 -2 0
6 3 -10 0
-3 -2 6 0
8 -2 -5 0
4 -1 -9 0
1 -4 2 0
-1 -6 9 0
-5 8 -4 0
5 -10 1 0
-1 9 7 0
9 -10 -7 0
-3 -8 -4 0
-9 2 8 0
9 -6 3 0
10 -3 -4 0
-5 7 6 0
-1 -3 10 0
9 4 -5 0
-4 9 2 0
-4 7 5 0
4 8 -5 0
-2 -8 5 0
7 -3 -8 0
9 5 -4 0
-4 5 -1 0
4 -3 -1 0
-5 -3 -8 0
6 -2 -5 0
-1 -9 -7 0
-9 4 1 0
7 -5 9 0
4 -3 -9 0
7 -8 6 0
2 -9 -1 0
10 9 3 0
3 -6 -8 0
7 3 10 0
-4 7 -1 0
-10 7 -5 0
-2 -8 9 0
-8 5 -4 0
6 -9 -1 0
3 -2 8 0
-2 -10 1 0
7 -6 1 0
3 -2 10 0
10 4 -1 0
-2 4 -1 0
10 -4 -7 0
8 6 -9 0
-10 -3 2 0
8 10 -4 0
-1 2 8 0
-4 5 -7 0
10 2 -4 0
9 3 1 0
7 -9 8 0
3 -5 -6 0
4 8 -2 0
